11586.06,52.5,65.12
10882.01,55.89,69.33
10045.37,60.55,75.11
10763.67,56.51,70.1
11154.81,54.53,67.64
10466.84,58.11,72.08
12095.69,50.28,62.38
10911.78,55.74,69.14
10386.53,58.56,72.64
10988.05,55.35,68.66
10652.45,57.1,70.83
10303.31,59.03,73.23
10110.13,60.16,74.63
10714.39,56.77,70.42
10253.76,59.32,73.58
10801.75,56.31,69.85
9492.57,64.07,79.48
11321.47,53.72,66.64
10930.47,55.64,69.03
11524.05,52.78,65.47
